benchmarks/VRPTW/TSPTW/solution/n60w100.002.txt.solution
1 34 31 29 6 45 20 19 9 22 15 28 26 7 40 32 4 25 56 49 55 46 43 16 11 24 57 23 53 30 54 47 35 13 42 3 41 44 8 10 50 60 37 14 33 52 36 2 38 12 27 51 17 59 21 39 48 18 58 61 5 
538
